(set-option :timeout 5000)
(declare-fun tvw_arr (Int) Int)
(declare-fun tvw_n () Int)
(assert (>=  (+  (-  (div  tvw_n   2 )   1 )   0 )   0 ) )
(assert (not  (>=  (-  (+  (-  (div  tvw_n   2 )   1 )   0 )   1 )   0 ) ) )
(assert (>  (+  (-  tvw_n   1 )   0 )   0 ) )
(assert (not  (>  (-  (+  (-  tvw_n   1 )   0 )   1 )   0 ) ) )
(check-sat)(get-model)